w = 30;
n = 28;
measures = [|5, 7,
|5, 14,
|8, 14,
|8, 4,
|13, 21,
|11, 7,
|11, 14,
|5, 14,
|5, 4,
|3, 18,
|3, 21,
|11, 17,
|11, 4,
|4, 7,
|4, 5,
|7, 6,
|5, 18,
|5, 3,
|3, 7,
|3, 5,
|4, 18,
|4, 3,
|2, 12,
|2, 6,
|5, 18,
|5, 21,
|3, 17,
|3, 4,
|];
initial_x = [0, 5, 10, 18, 0, 13, 0, 11, 16, 21, 24, 0, 11, 22, 26, 0, 7, 12, 17, 20, 23, 0, 4, 6, 8, 13, 18, 21];
initial_y = [0, 0, 0, 0, 14, 14, 35, 35, 35, 35, 35, 56, 56, 56, 56, 73, 73, 73, 73, 73, 73, 91, 91, 91, 91, 91, 91, 91];